
Gurobi 13.0.2 (win64) logging started Thu Jul 23 08:05:41 2026

Set parameter LogFile to value "E:\codes\ExactEBRP\results\gf_cplex_equivalent_gurobi_replica_round28\runs\stage3__V12_M2__c2_paper__300s\external\native_logs\L2.0.1.0.1.1.1.0.1_terminal_mip.gurobi.log"
Gurobi Optimizer version 13.0.2 build v13.0.2rc1 (win64 - Windows 10.0 (19045.2))

CPU model: 12th Gen Intel(R) Core(TM) i7-12700KF, instruction set [SSE2|AVX|AVX2]
Thread count: 12 physical cores, 20 logical processors, using up to 1 threads

Non-default parameters:
TimeLimit  2.4394797650000004e+02
MIPGap  0
MIPGapAbs  0
LogToConsole  0
Threads  1

Optimize a model with 11351 rows, 1034 columns and 113600 nonzeros (Min)
Model fingerprint: 0xbd726cb0
Model has 13 linear objective coefficients
Variable types: 516 continuous, 518 integer (434 binary)
Coefficient statistics:
  Matrix range     [5e-05, 1e+05]
  Objective range  [5e-05, 1e+00]
  Bounds range     [4e-01, 3e+02]
  RHS range        [2e-01, 1e+06]

Presolve removed 1183 rows and 33 columns
Presolve time: 0.31s
Presolved: 10168 rows, 1001 columns, 136014 nonzeros
Variable types: 487 continuous, 514 integer (430 binary)
Root relaxation presolved: 10129 rows, 978 columns, 135927 nonzeros


Root relaxation: objective 6.522000e-01, 1528 iterations, 0.16 seconds (0.49 work units)

    Nodes    |    Current Node    |     Objective Bounds      |     Work
 Expl Unexpl |  Obj  Depth IntInf | Incumbent    BestBd   Gap | It/Node Time

     0     0    0.65220    0  140          -    0.65220      -     -    0s
     0     0    0.66692    0  152          -    0.66692      -     -    0s
     0     0    0.66703    0  151          -    0.66703      -     -    1s
     0     0    0.66843    0  158          -    0.66843      -     -    1s
     0     0    0.66856    0  161          -    0.66856      -     -    1s
     0     0 infeasible    0               - infeasible      -     -    2s

Cutting planes:
  Learned: 4
  Gomory: 1
  Cover: 28
  Implied bound: 83
  Clique: 4
  MIR: 154
  StrongCG: 4
  Flow cover: 42
  GUB cover: 1
  Zero half: 4
  Network: 2
  RLT: 21
  Relax-and-lift: 27
  BQP: 11

Explored 1 nodes (5583 simplex iterations) in 2.04 seconds (3.57 work units)
Thread count was 1 (of 20 available processors)

Solution count 0

Model is infeasible
Best objective -, best bound -, gap -

User-callback calls 1298, time in user-callback 0.00 sec
